
  18    0


   0   9 2 3 4 6 13 14 15 16 17 
   3   5 12 10 9 8 7 
   6   2 10 5 
   4   2 9 8 
   6   1 11 
   7   1 7 
   4   1 18
  10   1 18
   7   1 18
   3   1 18
   4   1 18
  10   1 18
   2   1 18
   2   1 18
   9   1 18
   7   1 18
   3   1 18
   0   0 
